RAW/XT/fspd-mid/X-n162-k11.vrp_seed-2.out
13488	30.274	224.691
