RAW/XT/fspd-mid/X-n162-k11.vrp_seed-2.sol
Route #1: 8 76 41 61 46 69 65 42 51 3 33 75 44 7 54
Route #2: 52 79 20 22 67 62 114 95 129 96 102 116
Route #3: 59 50 45 152 28 26 48 11 73 38 58 68 145 90 150
Route #4: 53 86 130 99 35 36 94 100 66 56 123 43 142 88 106 31 140 154 111 80
Route #5: 135 159 147 121 85 160 153 110 128 124 134 148 109 2 82 118 30 157 40 103
Route #6: 91 158 120 5 16 32 57 131 37 71 13 6 49 24 23
Route #7: 15 139 149 89 14 1 55 60 21 9 27 117 97 17 127
Route #8: 72 29 10 105 126 138 133 107 122 84 143 144 119 141 115 156
Route #9: 155 92 125 93 132 112 87 4 101 151 146 39 137 108 81 74 136
Route #10: 25 47 98 161 77 104 83 63 113 70 12 64 18 19 34 78
Cost 13488.000000